Version identifier: 12.10.0.0 | 2019-11-26 | 843d4de
CPXPARAM_WorkMem                                 28672
Tried aggregator 2 times.
Aggregator did 50 substitutions.
Reduced MIP has 163 rows, 180 columns, and 726 nonzeros.
Reduced MIP has 180 binaries, 0 generals, 0 SOSs, and 0 indicators.
Presolve time = 0,00 sec. (0,72 ticks)
Found incumbent of value 810,000000 after 0,00 sec. (1,16 ticks)
Probing time = 0,00 sec. (0,32 ticks)
Tried aggregator 1 time.
Detecting symmetries...
MIP Presolve eliminated 39 rows and 0 columns.
MIP Presolve added 78 rows and 0 columns.
Reduced MIP has 202 rows, 180 columns, and 765 nonzeros.
Reduced MIP has 180 binaries, 0 generals, 0 SOSs, and 0 indicators.
Presolve time = 0,00 sec. (1,01 ticks)
Probing time = 0,00 sec. (0,32 ticks)
Clique table members: 526.
MIP emphasis: balance optimality and feasibility.
MIP search method: dynamic search.
Parallel mode: deterministic, using up to 16 threads.
Root relaxation solution time = 0,00 sec. (0,72 ticks)

        Nodes                                         Cuts/
   Node  Left     Objective  IInf  Best Integer    Best Bound    ItCnt     Gap

*     0+    0                          810,0000        0,0000           100,00%
*     0+    0                          578,0000        0,0000           100,00%
      0     0      270,0000   180      578,0000      270,0000       70   53,29%
      0     0      279,3214   180      578,0000      Cuts: 16       93   51,67%
      0     0      287,2804   180      578,0000      Cuts: 85      118   50,30%
      0     0      291,4250   180      578,0000     Cuts: 150      149   49,58%
      0     0      292,0183   180      578,0000       Cuts: 6      165   49,48%
      0     0      292,4671   180      578,0000       Cuts: 4      183   49,40%
      0     0      355,4927   180      578,0000     Cuts: 120      352   38,50%
      0     0      356,0647   180      578,0000      Cuts: 33      370   38,40%
      0     0      356,9624   180      578,0000      Cuts: 13      381   38,24%
*     0+    0                          567,0000      356,9624            37,04%
      0     0      357,9466   180      567,0000       Cuts: 5      398   36,87%
      0     0      358,4316   180      567,0000       Cuts: 7      415   36,78%
      0     0      358,8665   180      567,0000      Cuts: 10      437   36,71%
      0     0      359,2834   180      567,0000      Cuts: 11      451   36,63%
      0     0      359,4389   180      567,0000   ZeroHalf: 3      466   36,61%
      0     0      359,5874   180      567,0000       Cuts: 6      477   36,58%
      0     0      359,9126   180      567,0000      Cuts: 23      497   36,52%
      0     0      360,2807   180      567,0000       Cuts: 8      517   36,46%
      0     0      360,7553   180      567,0000   ZeroHalf: 3      530   36,37%
      0     0      360,7987   180      567,0000   ZeroHalf: 2      537   36,37%
      0     0      360,9115   180      567,0000      Cuts: 13      547   36,35%
      0     0      360,9971   180      567,0000      Cuts: 11      557   36,33%
      0     0        cutoff            567,0000      567,0000      557    0,00%
Elapsed time = 0,13 sec. (100,10 ticks, tree = 0,01 MB, solutions = 3)

Clique cuts applied:  27
Cover cuts applied:  69
Flow cuts applied:  11
Mixed integer rounding cuts applied:  28
Zero-half cuts applied:  25
Lift and project cuts applied:  1
Gomory fractional cuts applied:  12

Root node processing (before b&c):
  Real time             =    0,13 sec. (100,12 ticks)
Parallel b&c, 16 threads:
  Real time             =    0,00 sec. (0,00 ticks)
  Sync time (average)   =    0,00 sec.
  Wait time (average)   =    0,00 sec.
                          ------------
Total (root+branch&cut) =    0,13 sec. (100,12 ticks)
